0	77	27	85	189	94	77	92	40	120	180	
102	0	38	96	199	158	29	87	141	26	188	
60	158	0	100	51	138	71	62	159	184	106	
189	100	60	0	109	194	24	76	188	194	138	
182	145	44	99	0	76	84	74	55	200	44	
125	113	151	171	27	0	42	59	116	158	87	
24	145	127	45	71	74	0	141	25	81	50	
185	89	193	178	116	31	87	0	35	139	58	
41	175	62	177	58	62	87	98	0	36	199	
117	54	63	141	179	115	111	33	114	0	127	
120	58	91	180	53	99	170	198	125	155	0	
